2874
2883
2883
2883
2971
2971
2971
2971
2971
2971
2971
2971
2971
2971
2971
2971
2971
2971
2971
2971
2971
2971
2971
2971
2971
2971
2971
2971
2971
2971
2971
2971
2971
2971
2971
2971
2971
2971
2971
2971
2971
2971
2971
2971
2971
2971
2971
2971
2971
2971
2971
2971
2971
2971
2971
2971
2971
2971
2971
2971
2971
2971
2971
2971
2971
2971
2971
2971
2971
2971
2971
2971
2971
2971
2971
2971
2971
2971
2971
2971
2971
2971
2971
2971
2971
2971
2971
2971
2971
2971
2971
2971
2971
2971
2971
2971
2971
2971
2971
